39 27 61 27 37 76 62 84 68 57 5 81 54 94 99 38 42 26 58 94 31 83 92 93 72 63 58 18 88 69 46 39 39 36 78 89 36 11 39 31 70 59 18 80 9 11 46 62 11 26 31 75 43 58 79 45 71 91 50 75 39 80 78 2 16 23 81 97 70 81 34 61 25 60 86 48 11 33 25 97 90 87 36 76 46 92 97 12 31 18 96 47 1 37 57 38 15 77 84 16 